feasible solution found by trivial heuristic after 0.2 seconds, objective value 6.433179e+05
presolving:
(round 1, fast)       8269 del vars, 1 del conss, 0 add conss, 0 chg bounds, 0 chg sides, 0 chg coeffs, 0 upgd conss, 0 impls, 8268 clqs
   (0.4s) running MILP presolver
   (0.5s) MILP presolver found nothing
(round 2, exhaustive) 8269 del vars, 1 del conss, 0 add conss, 0 chg bounds, 0 chg sides, 0 chg coeffs, 10948 upgd conss, 0 impls, 8268 clqs
   (0.8s) probing: 51/2787 (1.8%) - 0 fixings, 0 aggregations, 0 implications, 0 bound changes
   (0.8s) probing aborted: 50/50 successive totally useless probings
   (1.1s) symmetry computation started: requiring (bin +, int -, cont +), (fixed: bin -, int +, cont -)
   (1.1s) no symmetry present
presolving (3 rounds: 3 fast, 2 medium, 2 exhaustive):
 8269 deleted vars, 1 deleted constraints, 0 added constraints, 0 tightened bounds, 0 added holes, 0 changed sides, 0 changed coefficients
 0 implications, 8268 cliques
presolved problem has 2787 variables (2787 bin, 0 int, 0 impl, 0 cont) and 10948 constraints
   8268 constraints of type <setppc>
   2680 constraints of type <logicor>
Presolving Time: 1.00

 time | node  | left  |LP iter|LP it/n|mem/heur|mdpt |vars |cons |rows |cuts |sepa|confs|strbr|  dualbound   | primalbound  |  gap   | compl. 
t 1.1s|     1 |     0 |     0 |     - | trivial|   0 |2787 |  10k|   0 |   0 |  0 |   0 |   0 | 1.298684e+07 | 1.981484e+06 | 555.41%| unknown
p 1.2s|     1 |     0 |     0 |     - |   locks|   0 |2787 |  10k|  10k|   0 |  0 |   0 |   0 | 1.298684e+07 | 2.910746e+06 | 346.17%| unknown
  1.8s|     1 |     0 |  1094 |     - |    91M |   0 |2787 |  10k|  10k|   0 |  0 |   0 |   0 | 3.862242e+06 | 2.910746e+06 |  32.69%| unknown
  2.0s|     1 |     0 |  1199 |     - |    94M |   0 |2787 |  10k|  10k|   1 |  1 |   0 |   0 | 3.852859e+06 | 2.910746e+06 |  32.37%| unknown
  2.2s|     1 |     0 |  1340 |     - |    96M |   0 |2787 |  10k|  10k|   2 |  2 |   0 |   0 | 3.848085e+06 | 2.910746e+06 |  32.20%| unknown
  2.3s|     1 |     0 |  1468 |     - |    98M |   0 |2787 |  10k|  10k|   3 |  3 |   0 |   0 | 3.845096e+06 | 2.910746e+06 |  32.10%| unknown
  2.5s|     1 |     0 |  1615 |     - |    99M |   0 |2787 |  10k|  10k|   4 |  4 |   0 |   0 | 3.842714e+06 | 2.910746e+06 |  32.02%| unknown
  2.7s|     1 |     0 |  1782 |     - |   102M |   0 |2787 |  10k|  10k|   5 |  5 |   0 |   0 | 3.841429e+06 | 2.910746e+06 |  31.97%| unknown
  2.9s|     1 |     0 |  1909 |     - |   103M |   0 |2787 |  10k|  10k|   6 |  6 |   0 |   0 | 3.840684e+06 | 2.910746e+06 |  31.95%| unknown
  3.0s|     1 |     0 |  2000 |     - |   105M |   0 |2787 |  10k|  10k|   7 |  7 |   0 |   0 | 3.840266e+06 | 2.910746e+06 |  31.93%| unknown
  3.3s|     1 |     0 |  2114 |     - |   107M |   0 |2787 |  10k|  10k|   8 |  8 |   0 |   0 | 3.840097e+06 | 2.910746e+06 |  31.93%| unknown
  3.8s|     1 |     0 |  2272 |     - |   108M |   0 |2787 |  10k|  10k|   9 |  9 |   0 |   0 | 3.839601e+06 | 2.910746e+06 |  31.91%| unknown
  4.0s|     1 |     0 |  2428 |     - |   111M |   0 |2787 |  10k|  10k|  10 | 10 |   0 |   0 | 3.838959e+06 | 2.910746e+06 |  31.89%| unknown
  4.1s|     1 |     0 |  2496 |     - |   112M |   0 |2787 |  10k|  10k|  11 | 11 |   0 |   0 | 3.838896e+06 | 2.910746e+06 |  31.89%| unknown
  4.3s|     1 |     0 |  2555 |     - |   113M |   0 |2787 |  10k|  10k|  12 | 12 |   0 |   0 | 3.838844e+06 | 2.910746e+06 |  31.89%| unknown
 time | node  | left  |LP iter|LP it/n|mem/heur|mdpt |vars |cons |rows |cuts |sepa|confs|strbr|  dualbound   | primalbound  |  gap   | compl. 
  4.4s|     1 |     0 |  2600 |     - |   114M |   0 |2787 |  10k|  10k|  13 | 13 |   0 |   0 | 3.838820e+06 | 2.910746e+06 |  31.88%| unknown
  4.5s|     1 |     0 |  2653 |     - |   116M |   0 |2787 |  10k|  10k|  15 | 14 |   0 |   0 | 3.838755e+06 | 2.910746e+06 |  31.88%| unknown
r 4.5s|     1 |     0 |  2653 |     - |randroun|   0 |2787 |  10k|  10k|   0 | 14 |   0 |   0 | 3.838755e+06 | 2.968908e+06 |  29.30%| unknown
  4.6s|     1 |     0 |  2675 |     - |   117M |   0 |2787 |  10k|  10k|  16 | 15 |   0 |   0 | 3.838732e+06 | 2.968908e+06 |  29.30%| unknown
i 4.6s|     1 |     0 |  2675 |     - |  oneopt|   0 |2787 |  10k|  10k|  16 | 15 |   0 |   0 | 3.838732e+06 | 3.096746e+06 |  23.96%| unknown
  4.8s|     1 |     0 |  2718 |     - |   118M |   0 |2787 |  10k|  10k|  17 | 16 |   0 |   0 | 3.838681e+06 | 3.096746e+06 |  23.96%| unknown
  4.8s|     1 |     0 |  2726 |     - |   119M |   0 |2787 |  10k|  10k|  18 | 17 |   0 |   0 | 3.838679e+06 | 3.096746e+06 |  23.96%| unknown
  4.9s|     1 |     0 |  2751 |     - |   120M |   0 |2787 |  10k|  10k|  19 | 18 |   0 |   0 | 3.838650e+06 | 3.096746e+06 |  23.96%| unknown
  5.0s|     1 |     0 |  2778 |     - |   121M |   0 |2787 |  10k|  10k|  20 | 19 |   0 |   0 | 3.838637e+06 | 3.096746e+06 |  23.96%| unknown
  5.1s|     1 |     0 |  2792 |     - |   123M |   0 |2787 |  10k|  10k|  21 | 20 |   0 |   0 | 3.838633e+06 | 3.096746e+06 |  23.96%| unknown
d 5.5s|     1 |     0 |  3365 |     - |farkasdi|   0 |2787 |  10k|  10k|   0 | 20 |   0 |   0 | 3.838633e+06 | 3.307286e+06 |  16.07%| unknown
L14.0s|     1 |     0 |  3365 |     - |    rens|   0 |2787 |  10k|  10k|  21 | 20 |   0 |   0 | 3.838633e+06 | 3.434480e+06 |  11.77%| unknown
 18.3s|     1 |     0 |  3365 |     - |   123M |   0 |2787 |  10k|  10k|  21 | 20 |   0 |   0 | 3.838633e+06 | 3.434480e+06 |  11.77%| unknown
 18.4s|     1 |     0 |  3375 |     - |   123M |   0 |2787 |  10k|  10k|  22 | 21 |   0 |   0 | 3.838631e+06 | 3.434480e+06 |  11.77%| unknown
 18.4s|     1 |     0 |  3399 |     - |   123M |   0 |2787 |  10k|  10k|  23 | 22 |   0 |   0 | 3.838618e+06 | 3.434480e+06 |  11.77%| unknown
 time | node  | left  |LP iter|LP it/n|mem/heur|mdpt |vars |cons |rows |cuts |sepa|confs|strbr|  dualbound   | primalbound  |  gap   | compl. 
 33.7s|     1 |     0 |  3735 |     - |   124M |   0 |2787 |  10k|  10k|  23 | 22 |   0 |  24 | 3.810705e+06 | 3.434480e+06 |  10.95%| unknown
 44.6s|     1 |     0 |  4029 |     - |   125M |   0 |2787 |  10k|  10k|  23 | 24 |   5 |  45 | 3.787765e+06 | 3.434480e+06 |  10.29%| unknown
 45.7s|     1 |     0 |  4382 |     - |   126M |   0 |2787 |  10k|  10k|  23 | 26 |   9 |  50 | 3.753222e+06 | 3.434480e+06 |   9.28%| unknown
 46.6s|     1 |     0 |  4539 |     - |   126M |   0 |2787 |  10k|  10k|  23 | 28 |  14 |  55 | 3.727581e+06 | 3.434480e+06 |   8.53%| unknown
 47.6s|     1 |     0 |  4740 |     - |   126M |   0 |2787 |  10k|  10k|  23 | 30 |  19 |  60 | 3.668110e+06 | 3.434480e+06 |   6.80%| unknown
 48.3s|     1 |     0 |  4872 |     - |   126M |   0 |2787 |  10k|  10k|  23 | 32 |  24 |  66 | 3.642635e+06 | 3.434480e+06 |   6.06%| unknown
 48.7s|     1 |     0 |  5008 |     - |   126M |   0 |2787 |  10k|  10k|  23 | 34 |  26 |  71 | 3.616636e+06 | 3.434480e+06 |   5.30%| unknown
 49.1s|     1 |     0 |  5140 |     - |   126M |   0 |2787 |  10k|  10k|  23 | 36 |  29 |  75 | 3.589631e+06 | 3.434480e+06 |   4.52%| unknown
 49.3s|     1 |     0 |  5196 |     - |   126M |   0 |2787 |  10k|  10k|  23 | 38 |  32 |  80 | 3.578652e+06 | 3.434480e+06 |   4.20%| unknown
 49.4s|     1 |     2 |  5196 |     - |   126M |   0 |2787 |  10k|  10k|  23 | 40 |  32 |  80 | 3.578652e+06 | 3.434480e+06 |   4.20%| unknown

SCIP Status        : problem is solved [optimal solution found]
Solving Time (sec) : 49.58
Solving Nodes      : 3
Primal Bound       : +3.43447975267139e+06 (75 solutions)
Dual Bound         : +3.43447975267139e+06
Gap                : 0.00 %
Solve Status: optimal
Solve Time: 49.59 seconds
